NAME : LPS-n10-m12
COMMENT : (Lartu-Peter-Santi Plot, instance 2812 out of 39200. 10 customers.)
TYPE : CVRP
DIMENSION : 10
EDGE_WEIGHT_TYPE : EUC_2D
CAPACITY : 107
NODE_COORD_SECTION
 1 95 13
 2 94 8
 3 18 79
 4 95 54
 5 74 57
 6 87 100
 7 93 88
 8 67 85
 9 78 29
 10 39 90
DEMAND_SECTION
1 0
2 14
3 22
4 59
5 47
6 97
7 58
8 32
9 88
10 54
DEPOT_SECTION
 1
 -1
EOF
